p edge 50 139
e 1 7
e 1 12
e 1 13
e 1 14
e 1 19
e 1 35
e 1 38
e 2 3
e 2 8
e 2 17
e 2 45
e 2 47
e 3 20
e 3 29
e 4 10
e 4 13
e 4 26
e 4 28
e 4 29
e 4 41
e 4 42
e 4 45
e 5 6
e 5 20
e 5 30
e 5 36
e 5 41
e 6 24
e 6 40
e 6 42
e 6 47
e 7 9
e 7 25
e 7 26
e 7 38
e 7 39
e 7 40
e 8 40
e 8 47
e 9 19
e 9 28
e 9 40
e 9 44
e 9 46
e 10 13
e 10 17
e 10 29
e 10 33
e 10 38
e 10 43
e 10 50
e 11 16
e 11 20
e 11 35
e 11 42
e 12 19
e 12 21
e 12 25
e 12 36
e 12 45
e 12 47
e 13 39
e 14 16
e 14 18
e 14 20
e 14 26
e 14 49
e 14 50
e 15 26
e 15 34
e 15 42
e 15 45
e 16 18
e 16 21
e 16 23
e 16 26
e 16 41
e 17 25
e 17 38
e 17 41
e 18 21
e 19 23
e 19 29
e 19 36
e 19 49
e 20 21
e 20 36
e 20 38
e 20 41
e 20 42
e 20 47
e 21 30
e 21 45
e 22 29
e 22 46
e 23 28
e 23 44
e 24 26
e 24 37
e 24 44
e 24 46
e 25 42
e 25 50
e 26 32
e 26 33
e 26 40
e 26 41
e 27 33
e 27 45
e 28 30
e 28 36
e 28 39
e 28 40
e 28 43
e 28 47
e 28 48
e 29 32
e 29 46
e 29 50
e 30 41
e 30 48
e 31 35
e 32 36
e 33 37
e 33 46
e 34 36
e 35 40
e 37 47
e 38 44
e 39 41
e 40 44
e 40 49
e 41 45
e 41 47
e 42 46
e 43 45
e 43 48
e 44 47
e 48 50
